100 10
22 98
52 93
76 41
16 55
22 39
64 21
34 90
2 68
8 52
97 92
38 94
69 20
39 30
27 24
69 35
87 4
99 18
6 49
82 34
44 6
76 22
45 15
41 38
43 82
88 17
16 45
51 35
77 12
70 46
85 91
24 54
8 86
38 99
6 68
14 28
31 53
48 47
87 10
51 36
97 89
27 96
51 96
90 62
76 11
6 71
69 72
23 42
18 81
50 45
14 61
11 53
71 22
14 59
45 46
89 21
51 68
30 67
83 88
99 92
33 16
3 21
49 85
91 49
45 96
76 25
7 83
36 11
42 1
14 38
42 95
15 89
78 75
78 81
42 32
89 64
12 44
70 15
81 74
15 96
83 51
24 72
36 10
50 5
66 27
38 100
21 53
84 44
33 27
78 100
69 17
66 89
55 16
50 93
2 26
47 98
9 99
91 79
44 85
71 4
36 28
496 611
517 626
404 461
412 499
535 617
338 407
438 541
631 732
369 457
451 515
